
Gurobi 9.0.2 (win64) logging started Sun Dec 27 05:42:27 2020

Changed value of parameter logfile to result\SunCable-20201227T0415\scenario_2030_m10_cab4000.log
   Prev:   Default: 
Gurobi Optimizer version 9.0.2 build v9.0.2rc0 (win64)
Optimize a model with 1243974 rows, 762167 columns and 3491691 nonzeros
Model fingerprint: 0xc4eef78a
Coefficient statistics:
  Matrix range     [1e-07, 4e+05]
  Objective range  [1e+00, 1e+00]
  Bounds range     [0e+00, 0e+00]
  RHS range        [2e-05, 3e+08]
Warning: Model contains large matrix coefficient range
         Consider reformulating model or setting NumericFocus parameter
         to avoid numerical issues.

Concurrent LP optimizer: primal simplex, dual simplex, and barrier
Showing barrier log only...

Presolve removed 1068997 rows and 595935 columns
Presolve time: 2.88s
Presolved: 174977 rows, 280098 columns, 652320 nonzeros

Ordering time: 0.09s

Barrier statistics:
 Dense cols : 5
 AA' NZ     : 6.422e+05
 Factor NZ  : 3.150e+06 (roughly 200 MBytes of memory)
 Factor Ops : 7.040e+07 (less than 1 second per iteration)
 Threads    : 30

                  Objective                Residual
Iter       Primal          Dual         Primal    Dual     Compl     Time
   0  -2.53634867e+16 -1.07293694e+15  7.40e+06 2.54e+04  3.04e+12     3s
   1  -5.47926868e+15 -1.08612605e+15  1.59e+06 4.56e+06  8.56e+11     4s
   2  -1.76567212e+15 -1.02454072e+15  5.15e+05 8.53e+05  2.47e+11     4s
   3  -3.45559683e+14 -8.99230890e+14  1.02e+05 1.35e+05  4.94e+10     4s
   4  -7.78291271e+13 -5.53463941e+14  2.21e+04 3.71e+04  1.18e+10     4s
   5  -2.42241778e+13 -3.72910061e+14  7.04e+03 1.83e+04  4.52e+09     5s
   6  -7.24921829e+12 -2.70275703e+14  2.30e+03 9.76e+03  1.97e+09     5s
   7  -2.32040438e+12 -1.02670056e+14  8.57e+02 8.47e+02  4.49e+08     5s
   8   4.85830822e+11 -2.64792847e+13  2.08e+01 4.46e+01  5.35e+07     5s
   9   2.89431002e+11 -1.60567669e+12  1.39e+00 1.37e+00  3.53e+06     6s
  10   1.20449477e+11 -6.83374435e+11  3.97e-01 1.54e-01  1.46e+06     6s
  11   3.11525414e+10 -1.38133388e+11  5.69e-02 5.59e-09  3.01e+05     6s
  12   2.42429919e+10 -9.48106061e+10  4.12e-02 5.59e-09  2.11e+05     6s
  13   1.31129566e+10 -4.42745534e+09  1.38e-02 1.12e-08  3.13e+04     7s
  14   9.37812810e+09  2.58396898e+09  4.98e-03 7.45e-09  1.21e+04     7s
  15   8.45072054e+09  4.83125753e+09  2.43e-03 5.59e-09  6.43e+03     7s
  16   7.99274601e+09  5.88859265e+09  1.18e-03 3.73e-09  3.73e+03     7s
  17   7.76903373e+09  6.51764807e+09  5.97e-04 3.73e-09  2.21e+03     7s
  18   7.71223126e+09  6.67903626e+09  4.34e-04 2.79e-09  1.82e+03     8s
  19   7.68021074e+09  6.78074860e+09  3.37e-04 3.73e-09  1.59e+03     8s
  20   7.64134958e+09  6.92031660e+09  1.96e-04 2.79e-09  1.27e+03     8s
  21   7.61046342e+09  7.02886174e+09  9.35e-05 2.79e-09  1.02e+03     8s
  22   7.58818471e+09  7.32156617e+09  3.82e-05 1.86e-09  4.69e+02     9s
  23   7.58280216e+09  7.36518582e+09  2.63e-05 1.86e-09  3.83e+02     9s
  24   7.57969337e+09  7.38366042e+09  1.91e-05 2.79e-09  3.45e+02     9s
  25   7.57817106e+09  7.40178987e+09  1.63e-05 1.86e-09  3.10e+02     9s
  26   7.57779161e+09  7.40877359e+09  1.57e-05 2.79e-09  2.97e+02    10s
  27   7.57599834e+09  7.42259322e+09  1.19e-05 2.79e-09  2.70e+02    10s
  28   7.57337888e+09  7.43575569e+09  7.63e-06 2.79e-09  2.42e+02    10s
  29   7.57150690e+09  7.46933765e+09  4.59e-06 2.79e-09  1.80e+02    11s
  30   7.57077903e+09  7.48693491e+09  3.56e-06 1.86e-09  1.47e+02    11s
  31   7.56998344e+09  7.50737041e+09  2.45e-06 1.86e-09  1.10e+02    11s
  32   7.56914296e+09  7.52534038e+09  1.26e-06 1.86e-09  7.70e+01    11s
  33   7.56875685e+09  7.54178199e+09  8.63e-07 1.86e-09  4.74e+01    12s
  34   7.56836340e+09  7.55244894e+09  4.96e-07 1.86e-09  2.80e+01    12s
  35   7.56803819e+09  7.56087904e+09  2.30e-07 1.86e-09  1.26e+01    12s
  36   7.56795822e+09  7.56318521e+09  1.66e-07 2.79e-09  8.39e+00    13s
  37   7.56780181e+09  7.56695613e+09  4.19e-08 2.79e-09  1.49e+00    13s
  38   7.56773419e+09  7.56752917e+09  1.53e-07 2.79e-09  3.61e-01    13s
  39   7.56770938e+09  7.56766702e+09  6.10e-07 1.86e-09  7.45e-02    13s
  40   7.56770803e+09  7.56770686e+09  7.82e-08 2.79e-09  2.06e-03    13s
  41   7.56770781e+09  7.56770776e+09  2.25e-05 3.30e-08  8.16e-05    14s
  42   7.56770780e+09  7.56770776e+09  1.29e-03 2.86e-08  6.76e-05    14s

Barrier solved model in 42 iterations and 13.94 seconds
Optimal objective 7.56770780e+09

Crossover log...

   20553 DPushes remaining with DInf 0.0000000e+00                14s
     780 DPushes remaining with DInf 0.0000000e+00                15s
       0 DPushes remaining with DInf 0.0000000e+00                16s

  129260 PPushes remaining with PInf 8.5045936e-04                16s
   40115 PPushes remaining with PInf 1.0332338e-02                36s
       0 PPushes remaining with PInf 0.0000000e+00                41s

  Push phase complete: Pinf 0.0000000e+00, Dinf 1.5494049e+04     41s

Iteration    Objective       Primal Inf.    Dual Inf.      Time
  140076    7.5677078e+09   0.000000e+00   1.549405e+04     41s
  140105    7.5677078e+09   0.000000e+00   0.000000e+00     43s

Solved with barrier
Solved in 140105 iterations and 43.01 seconds
Optimal objective  7.567707761e+09
Warning: unscaled primal violation = 0.000870481 and residual = 0.000870481
